benchmark_instances/dzn_benchmark_instances/benchmark_instance_4-1.dzn
% Input: sequence of points
seq_points = [|3,1
              |3,2
              |4,0
              |4,4
              |0,2
              |0,4
              |0,0
              |0,1
             |];

num_points = 8;
