benchmark_instances/lp_benchmark_instances/benchmark_instance_4-1.lp
% Input: sequence of points
point(3,1).
point(3,2).
point(4,0).
point(4,4).
point(0,2).
point(0,4).
point(0,0).
point(0,1).
